\ Octahedra bounds 
MAXIMIZE

 y{2}3

ST 
 3.0508 dH - sigma > 9.494
sigma - sigma{1}-sigma{2}-sigma{3}-sigma{4} = 0
y{1}1-y{2}1 = 0
y{2}1-y{3}1 = 0
y{3}1-y{4}1 = 0
y{4}1-y{1}1 = 0
y{1}3-y{2}2 = 0
y{2}3-y{3}2 = 0
y{3}3-y{4}2 = 0
y{4}3-y{1}2 = 0
y{1}5-y{2}6 = 0
y{2}5-y{3}6 = 0
y{3}5-y{4}6 = 0
y{4}5-y{1}6 = 0
dH - dih{1}3 -dih{2}2 - dih{2}3 - dih{3}2 = 0
dih{1}1 + dih{2}1 + dih{3}1 + dih{4}1 = 6.283185307179586476
 dih{1}1 - 0.636 y{1}1 + 0.462 y{1}2 + 0.462 y{1}3 - 0.82 y{1}4 + 0.462 y{1}5 +  0.462 y{1}6 > 1.82419 
 - dih{1}1 + 0.55 y{1}1 - 0.214 y{1}2 - 0.214 y{1}3 + 1.24 y{1}4 - 0.214 y{1}5  - 0.214 y{1}6 > 0.75281 
 dih{1}2 + 0.4 y{1}1 - 0.15 y{1}2 + 0.09 y{1}3 + 0.631 y{1}4 - 0.57 y{1}5 + 0.23 y{1}6   > 2.5481
 - dih{1}2 - 0.454 y{1}1 + 0.34 y{1}2 + 0.154 y{1}3 - 0.346 y{1}4 + 0.805 y{1}5 > -0.3429
 dih{1}3 + 0.4 y{1}1 - 0.15 y{1}3 + 0.09 y{1}2 + 0.631 y{1}4 - 0.57 y{1}6 + 0.23 y{1}5   > 2.5481
 - dih{1}3 - 0.454 y{1}1 + 0.34 y{1}3 + 0.154 y{1}2 - 0.346 y{1}4 + 0.805 y{1}6 > -0.3429
 sol{1} + 0.065 y{1}2 + 0.065 y{1}3 + 0.061 y{1}4 - 0.115 y{1}5 - 0.115 y{1}6 > 0.2618
 - sol{1} - 0.293 y{1}1 - 0.03 y{1}2 - 0.03 y{1}3 + 0.12 y{1}4 + 0.325 y{1}5 + 0.325 y{1}6 > 0.2514
 - sigma{1} - 0.054 y{1}2 - 0.054 y{1}3 - 0.083 y{1}4 - 0.054 y{1}5 - 0.054 y{1}6 > -0.59834
 - sigma{1} - 0.419351 sol{1} + 0.079431 dih{1}2 - 0.0846 y{1}1 > -0.30592 
 - sigma{1} - 0.419351 sol{1} + 0.079431 dih{1}3 - 0.0846 y{1}1 > -0.30592 
dih{1}1+dih{1}2+dih{1}3 -sol{1} =3.141592653589793

 dih{2}1 - 0.636 y{2}1 + 0.462 y{2}2 + 0.462 y{2}3 - 0.82 y{2}4 + 0.462 y{2}5 +  0.462 y{2}6 > 1.82419 
 - dih{2}1 + 0.55 y{2}1 - 0.214 y{2}2 - 0.214 y{2}3 + 1.24 y{2}4 - 0.214 y{2}5  - 0.214 y{2}6 > 0.75281 
 dih{2}2 + 0.4 y{2}1 - 0.15 y{2}2 + 0.09 y{2}3 + 0.631 y{2}4 - 0.57 y{2}5 + 0.23 y{2}6   > 2.5481
 - dih{2}2 - 0.454 y{2}1 + 0.34 y{2}2 + 0.154 y{2}3 - 0.346 y{2}4 + 0.805 y{2}5 > -0.3429
 dih{2}3 + 0.4 y{2}1 - 0.15 y{2}3 + 0.09 y{2}2 + 0.631 y{2}4 - 0.57 y{2}6 + 0.23 y{2}5   > 2.5481
 - dih{2}3 - 0.454 y{2}1 + 0.34 y{2}3 + 0.154 y{2}2 - 0.346 y{2}4 + 0.805 y{2}6 > -0.3429
 sol{2} + 0.065 y{2}2 + 0.065 y{2}3 + 0.061 y{2}4 - 0.115 y{2}5 - 0.115 y{2}6 > 0.2618
 - sol{2} - 0.293 y{2}1 - 0.03 y{2}2 - 0.03 y{2}3 + 0.12 y{2}4 + 0.325 y{2}5 + 0.325 y{2}6 > 0.2514
 - sigma{2} - 0.054 y{2}2 - 0.054 y{2}3 - 0.083 y{2}4 - 0.054 y{2}5 - 0.054 y{2}6 > -0.59834
 - sigma{2} - 0.419351 sol{2} + 0.079431 dih{2}2 - 0.0846 y{2}1 > -0.30592 
 - sigma{2} - 0.419351 sol{2} + 0.079431 dih{2}3 - 0.0846 y{2}1 > -0.30592 
dih{2}1+dih{2}2+dih{2}3 -sol{2} =3.141592653589793

 dih{3}1 - 0.636 y{3}1 + 0.462 y{3}2 + 0.462 y{3}3 - 0.82 y{3}4 + 0.462 y{3}5 +  0.462 y{3}6 > 1.82419 
 - dih{3}1 + 0.55 y{3}1 - 0.214 y{3}2 - 0.214 y{3}3 + 1.24 y{3}4 - 0.214 y{3}5  - 0.214 y{3}6 > 0.75281 
 dih{3}2 + 0.4 y{3}1 - 0.15 y{3}2 + 0.09 y{3}3 + 0.631 y{3}4 - 0.57 y{3}5 + 0.23 y{3}6   > 2.5481
 - dih{3}2 - 0.454 y{3}1 + 0.34 y{3}2 + 0.154 y{3}3 - 0.346 y{3}4 + 0.805 y{3}5 > -0.3429
 dih{3}3 + 0.4 y{3}1 - 0.15 y{3}3 + 0.09 y{3}2 + 0.631 y{3}4 - 0.57 y{3}6 + 0.23 y{3}5   > 2.5481
 - dih{3}3 - 0.454 y{3}1 + 0.34 y{3}3 + 0.154 y{3}2 - 0.346 y{3}4 + 0.805 y{3}6 > -0.3429
 sol{3} + 0.065 y{3}2 + 0.065 y{3}3 + 0.061 y{3}4 - 0.115 y{3}5 - 0.115 y{3}6 > 0.2618
 - sol{3} - 0.293 y{3}1 - 0.03 y{3}2 - 0.03 y{3}3 + 0.12 y{3}4 + 0.325 y{3}5 + 0.325 y{3}6 > 0.2514
 - sigma{3} - 0.054 y{3}2 - 0.054 y{3}3 - 0.083 y{3}4 - 0.054 y{3}5 - 0.054 y{3}6 > -0.59834
 - sigma{3} - 0.419351 sol{3} + 0.079431 dih{3}2 - 0.0846 y{3}1 > -0.30592 
 - sigma{3} - 0.419351 sol{3} + 0.079431 dih{3}3 - 0.0846 y{3}1 > -0.30592 
dih{3}1+dih{3}2+dih{3}3 -sol{3} =3.141592653589793

 dih{4}1 - 0.636 y{4}1 + 0.462 y{4}2 + 0.462 y{4}3 - 0.82 y{4}4 + 0.462 y{4}5 +  0.462 y{4}6 > 1.82419 
 - dih{4}1 + 0.55 y{4}1 - 0.214 y{4}2 - 0.214 y{4}3 + 1.24 y{4}4 - 0.214 y{4}5  - 0.214 y{4}6 > 0.75281 
 dih{4}2 + 0.4 y{4}1 - 0.15 y{4}2 + 0.09 y{4}3 + 0.631 y{4}4 - 0.57 y{4}5 + 0.23 y{4}6   > 2.5481
 - dih{4}2 - 0.454 y{4}1 + 0.34 y{4}2 + 0.154 y{4}3 - 0.346 y{4}4 + 0.805 y{4}5 > -0.3429
 dih{4}3 + 0.4 y{4}1 - 0.15 y{4}3 + 0.09 y{4}2 + 0.631 y{4}4 - 0.57 y{4}6 + 0.23 y{4}5   > 2.5481
 - dih{4}3 - 0.454 y{4}1 + 0.34 y{4}3 + 0.154 y{4}2 - 0.346 y{4}4 + 0.805 y{4}6 > -0.3429
 sol{4} + 0.065 y{4}2 + 0.065 y{4}3 + 0.061 y{4}4 - 0.115 y{4}5 - 0.115 y{4}6 > 0.2618
 - sol{4} - 0.293 y{4}1 - 0.03 y{4}2 - 0.03 y{4}3 + 0.12 y{4}4 + 0.325 y{4}5 + 0.325 y{4}6 > 0.2514
 - sigma{4} - 0.054 y{4}2 - 0.054 y{4}3 - 0.083 y{4}4 - 0.054 y{4}5 - 0.054 y{4}6 > -0.59834
 - sigma{4} - 0.419351 sol{4} + 0.079431 dih{4}2 - 0.0846 y{4}1 > -0.30592 
 - sigma{4} - 0.419351 sol{4} + 0.079431 dih{4}3 - 0.0846 y{4}1 > -0.30592 
dih{4}1+dih{4}2+dih{4}3 -sol{4} =3.141592653589793

BOUNDS 
-1000< sigma{1} < 0 
-1000< sigma{2} < 0 
-1000< sigma{3} < 0 
-1000< sigma{4} < 0 
-1000< sigma < 0 
 2.51 < y{1}1 < 2.8284271247461900976
 2 < y{1}2 < 2.51
 2 < y{1}3 < 2.51
 2 < y{1}4 < 2.51
 2 < y{1}5 < 2.51
 2 < y{1}6 < 2.51
 2.51 < y{2}1 < 2.8284271247461900976
 2 < y{2}2 < 2.51
 2 < y{2}3 < 2.51
 2 < y{2}4 < 2.51
 2 < y{2}5 < 2.51
 2 < y{2}6 < 2.51
 2.51 < y{3}1 < 2.8284271247461900976
 2 < y{3}2 < 2.51
 2 < y{3}3 < 2.51
 2 < y{3}4 < 2.51
 2 < y{3}5 < 2.51
 2 < y{3}6 < 2.51
 2.51 < y{4}1 < 2.8284271247461900976
 2 < y{4}2 < 2.51
 2 < y{4}3 < 2.51
 2 < y{4}4 < 2.51
 2 < y{4}5 < 2.51
 2 < y{4}6 < 2.51
 END
